NAME : random626560
COMMENT: random generated with id 626560
TYPE : TSP
DIMENSION : 20
EDGE_WEIGHT_TYPE : EUC_2D
NODE_COORD_SECTION
1 4.043936 11.270911
2 8.674604 1.527714
3 7.462125 4.574279
4 9.211992 15.124408
5 1.184296 4.238610
6 16.228133 13.253121
7 3.120956 17.807135
8 6.797639 4.090630
9 2.599183 13.910079
10 7.446730 16.907272
11 11.557789 9.858666
12 19.166114 5.914971
13 14.082753 2.418247
14 1.287630 4.718249
15 0.960791 8.295459
16 12.153480 5.004728
17 19.566370 0.828084
18 6.532441 7.028495
19 5.402363 15.744433
20 2.152903 6.586659
EOF
